# Objective value = 292.523077265284
x[0] 1
x[1] 1.0000003610270038e+00
x[2] -1.1611593242477625e-07
x[3] 0
x[4] -3.6124956554198027e-07
x[5] 0
x[6] 0
x[7] 0
x[8] 0
x[9] 1
x[10] -1.1611593242477625e-07
x[11] 0
x[12] 1.0000001289341098e+00
x[13] 1
x[14] 1
x[15] -3.5791623226135679e-07
x[16] 0
x[17] 1.0000001160608070e+00
x[18] 1
x[19] 1
x[20] 1
x[21] 1
x[22] 1.0000003480395245e+00
x[23] 0
x[24] 0
x[25] 1
x[26] 1
x[27] 0
x[28] 1
x[29] 1
x[30] 1
x[31] -1.1611593242477625e-07
x[32] 1
x[33] 1
x[34] 1
x[35] 0
x[36] 1
x[37] 1
x[38] 0
x[39] 1
x[40] -1.1611593242477625e-07
x[41] 1
x[42] 1.0000001160371710e+00
x[43] 0
x[44] 1
x[45] 0
x[46] -1.2534326465640788e-08
x[47] 0
x[48] 0
x[49] 0
x[50] -1.1611593242477625e-07
x[51] 1.0000000249940726e+00
x[52] 1
x[53] 0
x[54] -2.3223186509212828e-07
x[55] 0
x[56] 0
x[57] 1
x[58] 1.0000001160359717e+00
x[59] -5.8057966212388123e-08
x[60] 0
x[61] 0
x[62] 1
x[63] 1
x[64] 0
x[65] -2.7893996552881444e-07
x[66] 1
x[67] 1
x[68] 0
x[69] 1
x[70] -9.0312388476105321e-08
x[71] 1
x[72] 1
x[73] -2.8050561168104745e-07
x[74] -1.5041192069631393e-08
x[75] 0
x[76] 1
x[77] -2.8383894501438078e-07
x[78] 1
x[79] 1
x[80] 1
x[81] 1.0000002836759592e+00
x[82] 1
x[83] 1.0000003611670880e+00
x[84] 1
x[85] 1
x[86] 1
x[87] 1
x[88] 1
x[89] 1.0000002836078663e+00
x[90] 0
x[91] 1.0000000249668057e+00
x[92] 1
x[93] 0
x[94] 1
x[95] -4.2242508030245725e-07
x[96] 0
x[97] 0
x[98] 0
x[99] 0
x[100] -1.0027461293653833e-07
x[101] 1
x[102] 1.0000001287801870e+00
x[103] 0
x[104] 1
x[105] 1
x[106] 1.0000000124896469e+00
x[107] 1
x[108] 0
x[109] 1
x[110] 0
x[111] 0
x[112] 1.0000001160020577e+00
x[113] 0
x[114] 0
x[115] 1
x[116] 1
x[117] 0
x[118] 1
x[119] 1.6752927965835591e-07
x[120] 1
x[121] 1
x[122] 0
x[123] 1.0000000149904744e+00
x[124] 0
x[125] 1
x[126] -1.8062478275545365e-07
x[127] 1
x[128] 0
x[129] 0
x[130] 1
x[131] 1
x[132] -2.5803540104618605e-07
x[133] 0
x[134] 0
x[135] 1.0000002836365802e+00
x[136] 0
x[137] 1
x[138] 1.0000002837790014e+00
x[139] 0
x[140] -2.8050561169035284e-07
x[141] 1
x[142] 0
x[143] 1
x[144] 0
x[145] 1
x[146] 0
x[147] 1.0000000450135949e+00
x[148] 0
x[149] 0
x[150] -2.1735319965874189e-08
x[151] 0
x[152] 1.0000000124322870e+00
x[153] 0
x[154] 1
x[155] 1
x[156] 1
x[157] 0
x[158] 0
x[159] 1
x[160] 1
x[161] 0
x[162] 0
x[163] 0
x[164] 0
x[165] 1.0000000500680908e+00
x[166] 0
x[167] 1
x[168] 0
x[169] 0
x[170] 0
x[171] 1
x[172] 0
x[173] 0
x[174] 0
x[175] -7.2410620580309337e-08
x[176] 1
x[177] 0
x[178] 1
x[179] 1
x[180] 1
x[181] 1
x[182] 1
x[183] 0
x[184] 0
x[185] 1
x[186] 0
x[187] 1
x[188] 0
x[189] 0
x[190] 0
x[191] 0
x[192] 1.0000001160665069e+00
x[193] 0
x[194] -1.1111593242477624e-07
x[195] 1
x[196] 0
x[197] -3.6124956559469013e-07
x[198] 1.0000002579902494e+00
x[199] 0
x[200] 9.9999983561032080e-01
x[201] 0
x[202] 0
x[203] 0
x[204] 0
x[205] 1
x[206] 0
x[207] 1.0000002579447078e+00
x[208] 1.0000000589741027e+00
x[209] 0
x[210] 1
x[211] -1.1611593242477625e-07
x[212] 0
x[213] 1
x[214] 0
x[215] -3.0082384139262786e-08
x[216] 1.0000002579500298e+00
x[217] 0
x[218] 0
x[219] 1
x[220] -5.6767788820912484e-07
x[221] 0
x[222] 1
x[223] 0
x[224] 0
x[225] 0
x[226] 1.0000002579915233e+00
x[227] 1.00000028290765
x[228] 0
x[229] 1
x[230] 1
x[231] 0
x[232] 1
x[233] 1.00000042570182
x[234] 0
x[235] 0
x[236] 1
x[237] 0
x[238] 1
x[239] 0
x[240] 1
x[241] 0
x[242] 0
x[243] 1
x[244] 0
x[245] 1
x[246] 0
x[247] 0
x[248] 1
x[249] 0
x[250] -2.5803540104618605e-07
x[251] 1.0000002448866083e+00
x[252] 0
x[253] 1
x[254] 1.0000003611651938e+00
x[255] 1
x[256] 0
x[257] 0
x[258] 0
x[259] -3.5624956559469012e-07
x[260] -1.2901770056119797e-07
x[261] 0
x[262] 1
x[263] 1
x[264] 1
x[265] 1
x[266] 0
x[267] 0
x[268] 0
x[269] 0
x[270] -1.1611593242477625e-07
x[271] 0
x[272] 1.0000003611616388e+00
x[273] 1
x[274] 0
x[275] 0
x[276] 1
x[277] 1
x[278] 0
x[279] 1
x[280] 1
x[281] 1
x[282] 1
x[283] 1.0000000579243242e+00
x[284] 1
x[285] 1
x[286] 1
x[287] 1
x[288] 0
x[289] 0
x[290] -7.2511641094742980e-08
x[291] 1
x[292] 0
x[293] 0
x[294] 1
x[295] 0
x[296] 0
x[297] 1
x[298] 0
x[299] 1
x[300] 0
x[301] -1.1611593248492481e-07
x[302] 0
x[303] 1
x[304] 1
x[305] 0
x[306] 0
x[307] 1
x[308] 0
x[309] 1
x[310] 1
x[311] 0
x[312] 1
x[313] 0
x[314] 1
x[315] 0
x[316] 1
x[317] 1
x[318] 1
x[319] 0
x[320] 0
x[321] 1.0000003611694255e+00
x[322] 1
x[323] 0
x[324] 0
x[325] 0
x[326] 0
x[327] 1
x[328] 1
x[329] 1.0000000522371504e+00
x[330] 0
x[331] 1
x[332] 1.0000000513396952e+00
x[333] 1
x[334] 1
x[335] 1
x[336] 1
x[337] 0
x[338] 1
x[339] 1
x[340] 0
x[341] 1
x[342] 0
x[343] 1
x[344] 1
x[345] 0
x[346] 1
x[347] 0
x[348] 1
x[349] 0
x[350] 1
x[351] 0
x[352] 0
x[353] 0
x[354] 1
x[355] 0
x[356] 1
x[357] 0
x[358] 0
x[359] 0
x[360] 0
x[361] 0
x[362] 0
x[363] 1
x[364] 1
x[365] 0
x[366] 0
x[367] 1.0000003611726878e+00
x[368] 0
x[369] 1
x[370] 1.0000000773679154e+00
x[371] 0
x[372] 1
x[373] 1
x[374] 1.6765241284373710e-07
x[375] 1
x[376] 0
x[377] 0
x[378] 1
x[379] 0
x[380] 1
x[381] -1.1611593242477625e-07
x[382] 1.0000001159820902e+00
x[383] 1
x[384] 1
x[385] 1
x[386] 0
x[387] 0
x[388] 1
x[389] 1
x[390] 1
x[391] 1
x[392] 0
x[393] 1
x[394] 0
x[395] 0
x[396] 1
x[397] 1
x[398] -3.6124956559469013e-07
x[399] 1
x[400] 0
x[401] 1
x[402] 1
x[403] 0
x[404] -1.2534326465640788e-08
x[405] 0
x[406] 1
x[407] -1.2534326465640788e-08
x[408] 1
x[409] -2.5068653299207523e-08
x[410] 1
x[411] 0
x[412] 0
x[413] 0
x[414] 0
x[415] 1.0000000250207675e+00
x[416] 1
x[417] 0
x[418] 1.0000002320324151e+00
x[419] 0
x[420] 0
x[421] 1
x[422] 1
x[423] -2.7893996552881444e-07
x[424] 0
x[425] 0
x[426] 1
x[427] 0
x[428] 0
x[429] 0
x[430] 1
x[431] -2.5803540112239594e-07
x[432] 0
x[433] 1.0000000124591879e+00
x[434] 1
x[435] 1
x[436] 1
x[437] 1
x[438] 1
x[439] 0
x[440] 1
x[441] 1
x[442] 1
x[443] 1
x[444] 0
x[445] 1
x[446] 1
x[447] 1
x[448] 1
x[449] 0
x[450] 1
x[451] 1.0000000451116982e+00
x[452] 0
x[453] 1
x[454] 1
x[455] 1
x[456] 0
x[457] 0
x[458] 0
x[459] -3.5624956559469012e-07
x[460] 1
x[461] 0
x[462] 0
x[463] 0
x[464] 0
x[465] 0
x[466] 0
x[467] -1.1278259909144291e-07
x[468] 1.0000000249690524e+00
x[469] -4.5156192340911616e-08
x[470] 1.0000001160026137e+00
x[471] -1.2534326465640788e-08
x[472] 1.0000001160425021e+00
x[473] 1
x[474] 0
x[475] 1.0000003611623851e+00
x[476] 0
x[477] 1
x[478] 1
x[479] 1
x[480] 0
x[481] -2.3223186504612997e-07
x[482] 0
x[483] 1
x[484] 0
x[485] 1
x[486] 0
x[487] 1
x[488] 0
x[489] 1
x[490] -1.5041192069631393e-08
x[491] 1
x[492] 1
x[493] 1
x[494] 1.0000001289263312e+00
x[495] 0
x[496] -1.1278259909144291e-07
x[497] 0
x[498] 0
x[499] 1
x[500] 1
x[501] 0
x[502] 0
x[503] 0
x[504] 1
x[505] 0
x[506] 1
x[507] -2.5803535697200738e-08
x[508] 1
x[509] 1
x[510] 0
x[511] 1
x[512] 0
x[513] 0
x[514] 1
x[515] 1
x[516] 0
x[517] 0
x[518] 0
x[519] -1.1278259909144291e-07
x[520] 1
x[521] 1
x[522] 0
x[523] 0
x[524] 0
x[525] 0
x[526] 0
x[527] 1.0000003611959010e+00
x[528] 1
x[529] 1.0000001160480225e+00
x[530] 0
x[531] 1
x[532] 1
x[533] 0
x[534] 0
x[535] 0
x[536] 0
x[537] 1
x[538] 1.0000002320808261e+00
x[539] 1
x[540] 1
x[541] 1
x[542] 0
x[543] 0
x[544] 1
x[545] 1
x[546] 1.0000000257372561e+00
x[547] 0
x[548] 1.0000002837923896e+00
x[549] 0
x[550] 1
x[551] -1.2534326439321989e-08
x[552] 0
x[553] 0
x[554] 1
x[555] 0
x[556] 0
x[557] 0
x[558] 0
x[559] 1
x[560] 0
x[561] -2.7883894501438078e-07
x[562] 1
x[563] 1
x[564] 1.0000001160628522e+00
x[565] 0
x[566] -3.4834779744086219e-07
x[567] -7.7410620580309342e-08
x[568] 0
x[569] 0
x[570] 0
x[571] -2.8050561168038126e-07
x[572] 1
x[573] 0
x[574] 1
x[575] 0
x[576] 1
x[577] 0
x[578] -2.5068653448602019e-08
x[579] 0
x[580] 1
x[581] 1.0000003611206523e+00
x[582] -2.5803540104618605e-07
x[583] 1
x[584] 1
x[585] 1
x[586] 0
x[587] 0
x[588] 1.0000001160452179e+00
x[589] 1
x[590] 0
x[591] 0
x[592] -2.8383894499274089e-07
x[593] 1.0000003612067272e+00
x[594] 0
x[595] -2.2889853173826376e-07
x[596] 0
x[597] 0
x[598] 0
x[599] 1
x[600] 0
x[601] 0
x[602] 0
x[603] 0
x[604] 1
x[605] 0
x[606] 0
x[607] 1
x[608] 1
x[609] 1
x[610] 1
x[611] 1
x[612] 0
x[613] 1
x[614] 0
x[615] 0
x[616] 0
x[617] -4.5156192340911616e-08
x[618] 0
x[619] 1
x[620] 1
x[621] -3.5635058610912378e-07
x[622] -2.8383894501438078e-07
x[623] 1.0000002579548721e+00
x[624] 1
x[625] 0
x[626] 1
x[627] 0
x[628] 0
x[629] 0
x[630] 1
x[631] 1.0000000124768367e+00
x[632] 0
x[633] 1
x[634] 0
x[635] -3.6124956559469013e-07
x[636] 1
x[637] 0
x[638] 0
x[639] -3.5635058610912378e-07
x[640] 0
x[641] 1
x[642] 1
x[643] 0
x[644] 1
x[645] -1.1611593242477625e-07
x[646] 1.0000000522831713e+00
x[647] 1
x[648] 1.0000002837929920e+00
x[649] 1.0000002837446280e+00
x[650] 0
x[651] 0
x[652] 1
x[653] -2.3223186509212828e-07
x[654] 1
x[655] 1
x[656] 1
x[657] 0
x[658] 1
x[659] 0
x[660] 1
x[661] 1
x[662] 1
x[663] 1
x[664] 0
x[665] 0
x[666] 1
x[667] 0
x[668] 1
x[669] 1
x[670] 1.0000002837944191e+00
x[671] 1.0000002837453048e+00
x[672] 1
x[673] 0
x[674] 1
x[675] 0
x[676] 1
x[677] 1
x[678] 1
x[679] 1
x[680] 1
x[681] 1
x[682] 0
x[683] 0
x[684] 0
x[685] 0
x[686] 1.0000001160280092e+00
x[687] -4.1822859007578279e-08
x[688] 1
x[689] 1
x[690] 0
x[691] 1
x[692] 0
x[693] 1.0000000124824591e+00
x[694] -3.4334779749637334e-07
x[695] 0
x[696] 0
x[697] 0
x[698] 1
x[699] 1
x[700] 0
x[701] 1.0000002321397243e+00
x[702] 1
x[703] 0
x[704] 0
x[705] -1.5041192030701957e-08
x[706] 0
x[707] 0
x[708] -2.8383894501438078e-07
x[709] 1.0000002837843940e+00
x[710] 1
x[711] 0
x[712] 0
x[713] 1
x[714] 0
x[715] 0
x[716] 1
x[717] 0
x[718] 1
x[719] 1
x[720] 0
x[721] 0
x[722] 0
x[723] 0
x[724] -5.7690519586530313e-08
x[725] 0
x[726] 1
x[727] 0
x[728] 1
x[729] 0
x[730] 1
x[731] 1
x[732] 1
x[733] 1
x[734] 1
x[735] 1
x[736] 1
x[737] 1
x[738] 1
x[739] 1
x[740] 1
x[741] -2.5068653375370786e-08
x[742] 0
x[743] 0
x[744] 1
x[745] 1
x[746] 1
x[747] 1
x[748] 0
x[749] 1
x[750] 0
x[751] 1
x[752] 0
x[753] 1.0000001160631342e+00
x[754] 0
x[755] 1.0000001160280609e+00
x[756] 1
x[757] 1
x[758] 1
x[759] 0
x[760] 1
x[761] 1
x[762] 1
x[763] 0
x[764] 0
x[765] 0
x[766] 0
x[767] 0
x[768] 0
x[769] -3.5783186036253581e-07
x[770] 1
x[771] 0
x[772] 1
x[773] 0
x[774] -2.5803540112239594e-07
x[775] 0
x[776] 1
x[777] 0
x[778] 1
x[779] 0
x[780] 1
x[781] 1
x[782] 0
x[783] 1.0000003739202270e+00
x[784] 1
x[785] 0
x[786] 1
x[787] -2.8045905636507181e-07
x[788] 0
x[789] 1
x[790] 0
x[791] 0
x[792] -1.1611593242477625e-07
x[793] 1
x[794] 0
x[795] 0
x[796] 0
x[797] 1
x[798] 0
x[799] -2.2723186507159709e-07
x[800] 1.0000001286573379e+00
x[801] 1
x[802] 1.0000002579919414e+00
x[803] 0
x[804] 1
x[805] 0
x[806] 1
x[807] 0
x[808] 0
x[809] 1.0000000250156846e+00
x[810] -1.1611593242477625e-07
x[811] 0
x[812] 0
x[813] 0
x[814] 0
x[815] -2.5803540099170061e-07
x[816] 0
x[817] 1
x[818] 0
x[819] 0
x[820] 0
x[821] 1.0000001147910116e+00
x[822] 0
x[823] -4.0156192340911618e-08
x[824] 0
x[825] 1
x[826] -1.2901770052309303e-07
x[827] 1
x[828] 0
x[829] 0
x[830] 0
x[831] 1
x[832] 1
x[833] 1
x[834] 0
x[835] 1
x[836] 1
x[837] 1
x[838] 1
x[839] -1.1270383769815198e-07
x[840] 1
x[841] 0
x[842] 0
x[843] 1
x[844] 1
x[845] 1
x[846] 1
x[847] 0
x[848] 1
x[849] 1
x[850] 0
x[851] 0
x[852] 1.0000002321076567e+00
x[853] 1
x[854] 0
x[855] 0
x[856] 0
x[857] 0
x[858] 1
x[859] -2.5313642163682959e-07
x[860] 1
x[861] 0
x[862] 0
x[863] 1
x[864] 1
x[865] 0
x[866] 1.0000001160604877e+00
x[867] 1
x[868] 1
x[869] 1.0000001159414176e+00
x[870] 1
x[871] 0
x[872] 1
x[873] 0
x[874] 0
x[875] 1
x[876] 1
x[877] 0
x[878] 1
x[879] 0
x[880] -1.2534326465640788e-08
x[881] 0
x[882] 0
x[883] 0
x[884] 1
x[885] -1.1278259915159147e-07
x[886] 0
x[887] 1
x[888] 1
x[889] 0
x[890] 0
x[891] 1.0000000149333002e+00
x[892] 0
x[893] 0
x[894] 0
x[895] 0
x[896] 1
x[897] -1.1611593233076872e-07
x[898] 0
x[899] -4.1822859007578279e-08
x[900] 1
x[901] 1
x[902] 1
x[903] 1
x[904] 0
x[905] 0
x[906] 0
x[907] 0
x[908] 1
x[909] 1
x[910] 1.0000000451136042e+00
x[911] 0
x[912] 0
x[913] 0
x[914] 0
x[915] 1.0000001160618188e+00
x[916] 0
x[917] -2.8044566818414677e-07
x[918] -1.1272980078060728e-07
x[919] 1
x[920] 1
x[921] 1
x[922] 1
x[923] -2.5803540104618605e-07
x[924] 0
x[925] 0
x[926] 0
x[927] 1.0000000450743081e+00
x[928] 0
x[929] -1.1611593242477625e-07
x[930] 1.0000002837960777e+00
x[931] 0
x[932] 1
x[933] 0
x[934] 0
x[935] 0
x[936] 0
x[937] 0
x[938] 1
x[939] 1
x[940] 0
x[941] 0
x[942] 1
x[943] 0
x[944] 0
x[945] 1
x[946] 0
x[947] -3.5778731904447219e-07
x[948] 0
x[949] 0
x[950] 0
x[951] 1
x[952] 1
x[953] 1
x[954] 1
x[955] -4.8949838050300535e-08
x[956] 1.0000001142973811e+00
x[957] 1
x[958] 1
x[959] 0
x[960] 1
x[961] 1
x[962] 0
x[963] 0
x[964] 1
x[965] 0
x[966] 1
x[967] 0
x[968] 0
x[969] 1
x[970] 1
x[971] 1
x[972] 0
x[973] 1
x[974] 0
x[975] 1.0000003612052142e+00
x[976] 0
x[977] 0
x[978] 0
x[979] 0
x[980] 0
x[981] 1
x[982] 1
x[983] 1.0000000450737709e+00
x[984] 1
x[985] 1
x[986] 0
x[987] 1.0000001160248644e+00
x[988] 0
x[989] 0
x[990] 1
x[991] -1.1611593242477625e-07
x[992] 0
x[993] -3.5624956559469012e-07
x[994] 0
x[995] 0
x[996] 1
x[997] 1
x[998] 1
x[999] 0
